p tw 32 35
1 2
2 13
3 4
4 5
5 6
6 7
7 8
8 9
8 11
9 10
10 25
11 12
12 14
13 24
14 15
14 17
15 16
16 19
17 18
18 19
19 20
20 21
21 28
22 23
23 25
24 27
24 28
25 26
27 25
28 29
29 30
30 31
30 22
31 32
32 3
